
  32    4
  10   10   10   10

   0   0   0   0   0   5 2 4 9 12 13 
   4  10  10  10  10   1 3 
   5  10  10  10  10   2 6 5 
   4  10  10  10  10   2 7 6 
   3  10  10  10  10   2 11 7 
   6  10  10  10  10   6 26 24 21 18 17 14 
   2  10  10  10  10   1 8 
   1  10  10  10  10   2 19 10 
   5  10  10  10  10   3 19 18 15 
   3  10  10  10  10   4 31 26 18 15 
   5  10  10  10  10   4 31 26 17 15 
   4  10  10  10  10   4 22 19 17 16 
   7  10  10  10  10   4 21 18 17 16 
   7  10  10  10  10   1 15 
   2  10  10  10  10   2 22 16 
   5  10  10  10  10   3 29 28 20 
   3  10  10  10  10   3 29 28 20 
   2  10  10  10  10   2 28 20 
   2  10  10  10  10   3 31 29 26 
   3  10  10  10  10   2 30 23 
   4  10  10  10  10   2 29 22 
   9  10  10  10  10   2 28 27 
   3  10  10  10  10   1 25 
   6  10  10  10  10   1 25 
   9  10  10  10  10   1 27 
   9  10  10  10  10   1 27 
   6  10  10  10  10   1 32
   3  10  10  10  10   1 32
   4  10  10  10  10   1 32
   3  10  10  10  10   1 32
   5  10  10  10  10   1 32
   0   0   0   0   0   0 
